NAME : pcb442.21657.tour
COMMENT : Length = 21657
COMMENT : Found by LKH [Keld Helsgaun] Sat May 25 06:41:56 2013
TYPE : TOUR
DIMENSION : 89
TOUR_SECTION
5
6
7
45
47
49
50
84
85
56
57
29
30
31
97
125
135
134
124
123
133
132
144
143
390
129
118
117
128
138
175
212
213
200
214
223
224
225
233
259
412
413
218
198
209
226
414
420
275
335
336
373
432
330
329
365
364
363
361
435
296
278
417
415
247
425
290
315
352
351
433
348
428
282
426
241
240
239
234
406
401
186
173
161
149
441
102
66
442
-1
EOF
